c turning on binary mode checking
c parsing input formula with 259840 variables and 1039924 clauses
c finished parsing, read 3266785 bytes from proof file
c detected empty clause; start verification via backward checking
c 2061 of 1039924 clauses in core                            
c 706 of 132064 lemmas in core using 13605 resolution steps
c 0 RAT lemmas in core; 32 redundant literals in core lemmas
s VERIFIED
c verification time: 1.246 seconds
